CapLotSizing_PM/src/Instancias/NCLSHT/25i6p2m/NBA04.OUT
 CG ITER, OVMR, OVMRUB =           1   32627.8984375   32627.8964844
 CG ITER, OVMR, OVMRUB =           2   32627.8964844   32627.8964844
 CG ITER, OVMR, OVMRUB =           3   32627.8964844   32627.8964844
 CG ITER, OVMR, OVMRUB =           4   32627.8808594   32627.8964844
 CG ITER, OVMR, OVMRUB =           5   32222.7324219   32627.8964844
 CG ITER, OVMR, OVMRUB =           6   31949.8300781   32627.8964844
 CG ITER, OVMR, OVMRUB =           7   31838.4277344   32627.8964844
 CG ITER, OVMR, OVMRUB =           8   31783.5253906   32627.8964844
 CG ITER, OVMR, OVMRUB =           9   31746.6484375   32627.8964844
 CG ITER, OVMR, OVMRUB =          10   31711.1816406   32627.8964844
 CG ITER, OVMR, OVMRUB =          11   31672.2441406   32627.8964844
 CG ITER, OVMR, OVMRUB =          12   31626.0019531   32627.8964844
 CG ITER, OVMR, OVMRUB =          13   31603.4296875   32627.8964844
 CG ITER, OVMR, OVMRUB =          14   31555.3007812   32627.8964844
 CG ITER, OVMR, OVMRUB =          15   31507.5898438   32627.8964844
 CG ITER, OVMR, OVMRUB =          16   31489.9648438   32627.8964844
 CG ITER, OVMR, OVMRUB =          17   31466.8730469   32627.8964844
 CG ITER, OVMR, OVMRUB =          18   31447.8750000   32627.8964844
 CG ITER, OVMR, OVMRUB =          19   31433.8535156   32627.8964844
 CG ITER, OVMR, OVMRUB =          20   31422.6855469   32627.8964844
 CG ITER, OVMR, OVMRUB =          21   31411.0527344   32627.8964844
 CG ITER, OVMR, OVMRUB =          22   31393.7539062   32627.8964844
 CG ITER, OVMR, OVMRUB =          23   31383.3417969   32627.8964844
 CG ITER, OVMR, OVMRUB =          24   31370.7539062   32627.8964844
 CG ITER, OVMR, OVMRUB =          25   31355.0996094   32627.8964844
 CG ITER, OVMR, OVMRUB =          26   31342.2851562   32627.8964844
 CG ITER, OVMR, OVMRUB =          27   31328.1523438   32627.8964844
 CG ITER, OVMR, OVMRUB =          28   31319.3710938   32627.8964844
 CG ITER, OVMR, OVMRUB =          29   31309.5097656   32627.8964844
 CG ITER, OVMR, OVMRUB =          30   31302.6640625   32627.8964844
 CG ITER, OVMR, OVMRUB =          31   31297.2089844   32627.8964844
 CG ITER, OVMR, OVMRUB =          32   31291.6015625   32627.8964844
 CG ITER, OVMR, OVMRUB =          33   31283.2851562   32627.8964844
 CG ITER, OVMR, OVMRUB =          34   31279.5859375   32627.8964844
 CG ITER, OVMR, OVMRUB =          35   31264.6386719   32627.8964844
 CG ITER, OVMR, OVMRUB =          36   31260.1113281   32627.8964844
 CG ITER, OVMR, OVMRUB =          37   31252.7304688   32627.8964844
 CG ITER, OVMR, OVMRUB =          38   31250.9238281   32627.8964844
 CG ITER, OVMR, OVMRUB =          39   31245.0468750   32627.8964844
 CG ITER, OVMR, OVMRUB =          40   31241.5722656   32627.8964844
 CG ITER, OVMR, OVMRUB =          41   31237.8867188   32627.8964844
 CG ITER, OVMR, OVMRUB =          42   31233.4902344   32627.8964844
 CG ITER, OVMR, OVMRUB =          43   31231.3027344   32627.8964844
 CG ITER, OVMR, OVMRUB =          44   31230.4355469   32627.8964844
 CG ITER, OVMR, OVMRUB =          45   31230.1464844   32627.8964844
 CG ITER, OVMR, OVMRUB =          46   31227.5117188   32627.8964844
 CG ITER, OVMR, OVMRUB =          47   31227.1621094   32492.3750000
 CG ITER, OVMR, OVMRUB =          48   31224.8925781   32189.4687500
 CG ITER, OVMR, OVMRUB =          49   31222.2265625   32189.4687500
 CG ITER, OVMR, OVMRUB =          50   31219.6718750   32189.4687500
 CG ITER, OVMR, OVMRUB =          51   31216.3886719   32189.4687500
 CG ITER, OVMR, OVMRUB =          52   31214.7832031   32189.4687500
 CG ITER, OVMR, OVMRUB =          53   31212.8281250   32189.4687500
 CG ITER, OVMR, OVMRUB =          54   31211.1933594   32189.4687500
 CG ITER, OVMR, OVMRUB =          55   31211.0566406   32189.4687500
 CG ITER, OVMR, OVMRUB =          56   31208.3085938   31961.0996094
 CG ITER, OVMR, OVMRUB =          57   31205.6054688   31961.0996094
 CG ITER, OVMR, OVMRUB =          58   31202.1308594   31961.0996094
 CG ITER, OVMR, OVMRUB =          59   31201.6757812   31961.0996094
 CG ITER, OVMR, OVMRUB =          60   31201.7890625   31961.0996094
 CG ITER, OVMR, OVMRUB =          61   31201.6328125   31961.0996094
 CG ITER, OVMR, OVMRUB =          62   31201.4277344   31961.0996094
 CG ITER, OVMR, OVMRUB =          63   31201.4082031   31961.0996094
 CG ITER, OVMR, OVMRUB =          64   31201.4257812   31850.5859375
 CG ITER, OVMR, OVMRUB =          65   31201.3574219   31850.5859375
 CG ITER, OVMR, OVMRUB =          66   31201.2695312   31850.5859375
 CG ITER, OVMR, OVMRUB =          67   31201.3925781   31543.9062500
 CG ITER, OVMR, OVMRUB =          68   31201.3007812   31543.9062500
 CG ITER, OVMR, OVMRUB =          69   31201.3867188   31543.9062500
 CG ITER, OVMR, OVMRUB =          70   31201.3437500   31543.9062500
 CG ITER, OVMR, OVMRUB =          71   31201.3730469   31543.9062500
 CG ITER, OVMR, OVMRUB =          72   31201.1464844   31543.9062500
 CG ITER, OVMR, OVMRUB =          73   31201.3691406   31543.9062500
 CG ITER, OVMR, OVMRUB =          74   31201.4062500   31493.9199219
 CG ITER, OVMR, OVMRUB =          75   31201.2675781   31493.9199219
 CG ITER, OVMR, OVMRUB =          76   31201.3203125   31493.9199219
 CG ITER, OVMR, OVMRUB =          77   31201.2343750   31493.9199219
OVLB =   31201.2343750 OVLUB =   31493.9199219 TIME =      60.8199997
